nK = 1552;
nT = 6;
nI = 14;
L = 35;
TT = 337;
np = 1;
nc = 3;
b = [36, 30, 35, 23, 69, 54, 40, 55, 53, 68, 45, 37, 30, 35];
d = [92, 46, 86, 87, 106, 98, 74, 141, 84, 104, 102, 67, 145, 70];
m = [1.4, 2, 1.7, 2.1, 1.5, 2.5, 1.9, 1.5, 2, 2.2, 1.9, 1.3, 1.6, 1.2];
pt = [0.32, 0.26, 0.23, 0.34, 0.23, 0.21];
st = [16, 14.82, 11.5, 19.38, 10.12, 11.13];
arc = {<1, 0, 1, 1, 0, 0, 0, [1, 1, 1, 1, 1, 1]>, <2, 1, 2, 1, 0, 0, 0, [1, 1, 1, 1, 1, 1]>, <3, 2, 3, 1, 0, 0, 0, [1, 1, 1, 1, 1, 1]>, <4, 3, 4, 1, 0, 0, 0, [1, 1, 1, 1, 1, 1]>, <5, 4, 5, 1, 0, 0, 0, [1, 1, 1, 1, 1, 1]>, <6, 5, 6, 1, 0, 0, 0, [1, 1, 1, 1, 1, 1]>, <7, 6, 7, 1, 0, 0, 0, [1, 1, 1, 1, 1, 1]>, <8, 7, 8, 1, 0, 0, 0, [1, 1, 1, 1, 1, 1]>, <9, 8, 9, 1, 0, 0, 0, [1, 1, 1, 1, 1, 1]>, <10, 9, 10, 1, 0, 0, 0, [1, 1, 1, 1, 1, 1]>, <11, 10, 11, 1, 0, 0, 0, [1, 1, 1, 1, 1, 1]>, <12, 11, 12, 1, 0, 0, 0, [1, 1, 1, 1, 1, 1]>, <13, 12, 13, 1, 0, 0, 0, [1, 1, 1, 1, 1, 1]>, <14, 13, 14, 1, 0, 0, 0, [1, 1, 1, 1, 1, 1]>, <15, 14, 15, 1, 0, 0, 0, [1, 1, 1, 1, 1, 1]>, <16, 15, 16, 1, 0, 0, 0, [1, 1, 1, 1, 1, 1]>, <17, 16, 17, 1, 0, 0, 0, [1, 1, 1, 1, 1, 1]>, <18, 17, 18, 1, 0, 0, 0, [1, 1, 1, 1, 1, 1]>, <19, 18, 19, 1, 0, 0, 0, [1, 1, 1, 1, 1, 1]>, <20, 19, 20, 1, 0, 0, 0, [1, 1, 1, 1, 1, 1]>, <21, 20, 21, 1, 0, 0, 0, [1, 1, 1, 1, 1, 1]>, <22, 21, 22, 1, 0, 0, 0, [1, 1, 1, 1, 1, 1]>, <23, 22, 23, 1, 0, 0, 0, [1, 1, 1, 1, 1, 1]>, <24, 23, 24, 1, 0, 0, 0, [1, 1, 1, 1, 1, 1]>, <25, 24, 25, 1, 0, 0, 0, [1, 1, 1, 1, 1, 1]>, <26, 25, 26, 1, 0, 0, 0, [1, 1, 1, 1, 1, 1]>, <27, 26, 27, 1, 0, 0, 0, [1, 1, 1, 1, 1, 1]>, <28, 27, 28, 1, 0, 0, 0, [1, 1, 1, 1, 1, 1]>, <29, 28, 29, 1, 0, 0, 0, [1, 1, 1, 1, 1, 1]>, <30, 29, 30, 1, 0, 0, 0, [1, 1, 1, 1, 1, 1]>, <31, 30, 31, 1, 0, 0, 0, [1, 1, 1, 1, 1, 1]>, <32, 31, 32, 1, 0, 0, 0, [1, 1, 1, 1, 1, 1]>, <33, 32, 33, 1, 0, 0, 0, [1, 1, 1, 1, 1, 1]>, <34, 33, 34, 1, 0, 0, 0, [1, 1, 1, 1, 1, 1]>, <35, 34, 35, 1, 0, 0, 0, [1, 1, 1, 1, 1, 1]>, <36, 1, 17, 16, 1, 0, 0, [0, 0, 0, 0, 1, 1]>, <37, 2, 18, 16, 1, 0, 0, [0, 0, 0, 0, 1, 1]>, <38, 3, 19, 16, 1, 0, 0, [0, 0, 0, 0, 1, 1]>, <39, 4, 20, 16, 1, 0, 0, [0, 0, 0, 0, 1, 1]>, <40, 5, 21, 16, 1, 0, 0, [0, 0, 0, 0, 1, 1]>, <41, 6, 22, 16, 1, 0, 0, [0, 0, 0, 0, 1, 1]>, <42, 10, 26, 16, 1, 0, 0, [0, 0, 0, 0, 1, 1]>, <43, 11, 27, 16, 1, 0, 0, [0, 0, 0, 0, 1, 1]>, <44, 12, 28, 16, 1, 0, 0, [0, 0, 0, 0, 1, 1]>, <45, 13, 29, 16, 1, 0, 0, [0, 0, 0, 0, 1, 1]>, <46, 14, 30, 16, 1, 0, 0, [0, 0, 0, 0, 1, 1]>, <47, 15, 31, 16, 1, 0, 0, [0, 0, 0, 0, 1, 1]>, <48, 16, 32, 16, 1, 0, 0, [0, 0, 0, 0, 1, 1]>, <49, 17, 33, 16, 1, 0, 0, [0, 0, 0, 0, 1, 1]>, <50, 18, 34, 16, 1, 0, 0, [0, 0, 0, 0, 1, 1]>, <51, 19, 35, 16, 1, 0, 0, [0, 0, 0, 0, 1, 1]>, <52, 4, 17, 13, 2, 0, 0, [0, 0, 1, 1, 0, 0]>, <53, 5, 18, 13, 2, 0, 0, [0, 0, 1, 1, 0, 0]>, <54, 6, 19, 13, 2, 0, 0, [0, 0, 1, 1, 0, 0]>, <55, 13, 26, 13, 2, 0, 0, [0, 0, 1, 1, 0, 0]>, <56, 14, 27, 13, 2, 0, 0, [0, 0, 1, 1, 0, 0]>, <57, 15, 28, 13, 2, 0, 0, [0, 0, 1, 1, 0, 0]>, <58, 18, 31, 13, 2, 0, 0, [0, 0, 1, 1, 0, 0]>, <59, 19, 32, 13, 2, 0, 0, [0, 0, 1, 1, 0, 0]>, <60, 20, 33, 13, 2, 0, 0, [0, 0, 1, 1, 0, 0]>, <61, 21, 34, 13, 2, 0, 0, [0, 0, 1, 1, 0, 0]>, <62, 22, 35, 13, 2, 0, 0, [0, 0, 1, 1, 0, 0]>, <63, 2, 17, 15, 3, 1, 0, [0, 1, 1, 0, 0, 0]>, <64, 3, 18, 15, 3, 1, 0, [0, 1, 1, 0, 0, 0]>, <65, 4, 19, 15, 3, 1, 0, [0, 1, 1, 0, 0, 0]>, <66, 5, 20, 15, 3, 1, 0, [0, 1, 1, 0, 0, 0]>, <67, 6, 21, 15, 3, 1, 0, [0, 1, 1, 0, 0, 0]>, <68, 11, 26, 15, 3, 1, 0, [0, 1, 1, 0, 0, 0]>, <69, 12, 27, 15, 3, 1, 0, [0, 1, 1, 0, 0, 0]>, <70, 13, 28, 15, 3, 1, 0, [0, 1, 1, 0, 0, 0]>, <71, 14, 29, 15, 3, 1, 0, [0, 1, 1, 0, 0, 0]>, <72, 15, 30, 15, 3, 1, 0, [0, 1, 1, 0, 0, 0]>, <73, 16, 31, 15, 3, 1, 0, [0, 1, 1, 0, 0, 0]>, <74, 17, 32, 15, 3, 1, 0, [0, 1, 1, 0, 0, 0]>, <75, 18, 33, 15, 3, 1, 0, [0, 1, 1, 0, 0, 0]>, <76, 19, 34, 15, 3, 1, 0, [0, 1, 1, 0, 0, 0]>, <77, 20, 35, 15, 3, 1, 0, [0, 1, 1, 0, 0, 0]>, <78, 0, 17, 17, 4, 0, 0, [0, 0, 0, 1, 1, 0]>, <79, 1, 18, 17, 4, 0, 0, [0, 0, 0, 1, 1, 0]>, <80, 2, 19, 17, 4, 0, 0, [0, 0, 0, 1, 1, 0]>, <81, 3, 20, 17, 4, 0, 0, [0, 0, 0, 1, 1, 0]>, <82, 4, 21, 17, 4, 0, 0, [0, 0, 0, 1, 1, 0]>, <83, 5, 22, 17, 4, 0, 0, [0, 0, 0, 1, 1, 0]>, <84, 6, 23, 17, 4, 0, 0, [0, 0, 0, 1, 1, 0]>, <85, 9, 26, 17, 4, 0, 0, [0, 0, 0, 1, 1, 0]>, <86, 10, 27, 17, 4, 0, 0, [0, 0, 0, 1, 1, 0]>, <87, 11, 28, 17, 4, 0, 0, [0, 0, 0, 1, 1, 0]>, <88, 12, 29, 17, 4, 0, 0, [0, 0, 0, 1, 1, 0]>, <89, 13, 30, 17, 4, 0, 0, [0, 0, 0, 1, 1, 0]>, <90, 14, 31, 17, 4, 0, 0, [0, 0, 0, 1, 1, 0]>, <91, 15, 32, 17, 4, 0, 0, [0, 0, 0, 1, 1, 0]>, <92, 16, 33, 17, 4, 0, 0, [0, 0, 0, 1, 1, 0]>, <93, 17, 34, 17, 4, 0, 0, [0, 0, 0, 1, 1, 0]>, <94, 18, 35, 17, 4, 0, 0, [0, 0, 0, 1, 1, 0]>, <95, 2, 17, 15, 5, 1, 0, [1, 1, 0, 0, 0, 0]>, <96, 3, 18, 15, 5, 1, 0, [1, 1, 0, 0, 0, 0]>, <97, 4, 19, 15, 5, 1, 0, [1, 1, 0, 0, 0, 0]>, <98, 5, 20, 15, 5, 1, 0, [1, 1, 0, 0, 0, 0]>, <99, 6, 21, 15, 5, 1, 0, [1, 1, 0, 0, 0, 0]>, <100, 11, 26, 15, 5, 1, 0, [1, 1, 0, 0, 0, 0]>, <101, 12, 27, 15, 5, 1, 0, [1, 1, 0, 0, 0, 0]>, <102, 13, 28, 15, 5, 1, 0, [1, 1, 0, 0, 0, 0]>, <103, 14, 29, 15, 5, 1, 0, [1, 1, 0, 0, 0, 0]>, <104, 15, 30, 15, 5, 1, 0, [1, 1, 0, 0, 0, 0]>, <105, 16, 31, 15, 5, 1, 0, [1, 1, 0, 0, 0, 0]>, <106, 17, 32, 15, 5, 1, 0, [1, 1, 0, 0, 0, 0]>, <107, 18, 33, 15, 5, 1, 0, [1, 1, 0, 0, 0, 0]>, <108, 19, 34, 15, 5, 1, 0, [1, 1, 0, 0, 0, 0]>, <109, 20, 35, 15, 5, 1, 0, [1, 1, 0, 0, 0, 0]>, <110, 3, 17, 14, 6, 0, 1, [0, 0, 0, 1, 1, 0]>, <111, 4, 18, 14, 6, 0, 1, [0, 0, 0, 1, 1, 0]>, <112, 5, 19, 14, 6, 0, 1, [0, 0, 0, 1, 1, 0]>, <113, 6, 20, 14, 6, 0, 1, [0, 0, 0, 1, 1, 0]>, <114, 12, 26, 14, 6, 0, 1, [0, 0, 0, 1, 1, 0]>, <115, 13, 27, 14, 6, 0, 1, [0, 0, 0, 1, 1, 0]>, <116, 14, 28, 14, 6, 0, 1, [0, 0, 0, 1, 1, 0]>, <117, 15, 29, 14, 6, 0, 1, [0, 0, 0, 1, 1, 0]>, <118, 17, 31, 14, 6, 0, 1, [0, 0, 0, 1, 1, 0]>, <119, 18, 32, 14, 6, 0, 1, [0, 0, 0, 1, 1, 0]>, <120, 19, 33, 14, 6, 0, 1, [0, 0, 0, 1, 1, 0]>, <121, 20, 34, 14, 6, 0, 1, [0, 0, 0, 1, 1, 0]>, <122, 21, 35, 14, 6, 0, 1, [0, 0, 0, 1, 1, 0]>, <123, 2, 17, 15, 7, 0, 0, [0, 0, 0, 1, 1, 0]>, <124, 3, 18, 15, 7, 0, 0, [0, 0, 0, 1, 1, 0]>, <125, 4, 19, 15, 7, 0, 0, [0, 0, 0, 1, 1, 0]>, <126, 5, 20, 15, 7, 0, 0, [0, 0, 0, 1, 1, 0]>, <127, 6, 21, 15, 7, 0, 0, [0, 0, 0, 1, 1, 0]>, <128, 11, 26, 15, 7, 0, 0, [0, 0, 0, 1, 1, 0]>, <129, 12, 27, 15, 7, 0, 0, [0, 0, 0, 1, 1, 0]>, <130, 13, 28, 15, 7, 0, 0, [0, 0, 0, 1, 1, 0]>, <131, 14, 29, 15, 7, 0, 0, [0, 0, 0, 1, 1, 0]>, <132, 15, 30, 15, 7, 0, 0, [0, 0, 0, 1, 1, 0]>, <133, 16, 31, 15, 7, 0, 0, [0, 0, 0, 1, 1, 0]>, <134, 17, 32, 15, 7, 0, 0, [0, 0, 0, 1, 1, 0]>, <135, 18, 33, 15, 7, 0, 0, [0, 0, 0, 1, 1, 0]>, <136, 19, 34, 15, 7, 0, 0, [0, 0, 0, 1, 1, 0]>, <137, 20, 35, 15, 7, 0, 0, [0, 0, 0, 1, 1, 0]>, <138, 0, 18, 18, 8, 0, 1, [0, 0, 0, 0, 1, 1]>, <139, 1, 19, 18, 8, 0, 1, [0, 0, 0, 0, 1, 1]>, <140, 2, 20, 18, 8, 0, 1, [0, 0, 0, 0, 1, 1]>, <141, 3, 21, 18, 8, 0, 1, [0, 0, 0, 0, 1, 1]>, <142, 4, 22, 18, 8, 0, 1, [0, 0, 0, 0, 1, 1]>, <143, 5, 23, 18, 8, 0, 1, [0, 0, 0, 0, 1, 1]>, <144, 6, 24, 18, 8, 0, 1, [0, 0, 0, 0, 1, 1]>, <145, 8, 26, 18, 8, 0, 1, [0, 0, 0, 0, 1, 1]>, <146, 9, 27, 18, 8, 0, 1, [0, 0, 0, 0, 1, 1]>, <147, 10, 28, 18, 8, 0, 1, [0, 0, 0, 0, 1, 1]>, <148, 11, 29, 18, 8, 0, 1, [0, 0, 0, 0, 1, 1]>, <149, 12, 30, 18, 8, 0, 1, [0, 0, 0, 0, 1, 1]>, <150, 13, 31, 18, 8, 0, 1, [0, 0, 0, 0, 1, 1]>, <151, 14, 32, 18, 8, 0, 1, [0, 0, 0, 0, 1, 1]>, <152, 15, 33, 18, 8, 0, 1, [0, 0, 0, 0, 1, 1]>, <153, 16, 34, 18, 8, 0, 1, [0, 0, 0, 0, 1, 1]>, <154, 17, 35, 18, 8, 0, 1, [0, 0, 0, 0, 1, 1]>, <155, 0, 17, 17, 9, 0, 0, [0, 0, 1, 1, 0, 0]>, <156, 1, 18, 17, 9, 0, 0, [0, 0, 1, 1, 0, 0]>, <157, 2, 19, 17, 9, 0, 0, [0, 0, 1, 1, 0, 0]>, <158, 3, 20, 17, 9, 0, 0, [0, 0, 1, 1, 0, 0]>, <159, 4, 21, 17, 9, 0, 0, [0, 0, 1, 1, 0, 0]>, <160, 5, 22, 17, 9, 0, 0, [0, 0, 1, 1, 0, 0]>, <161, 6, 23, 17, 9, 0, 0, [0, 0, 1, 1, 0, 0]>, <162, 9, 26, 17, 9, 0, 0, [0, 0, 1, 1, 0, 0]>, <163, 10, 27, 17, 9, 0, 0, [0, 0, 1, 1, 0, 0]>, <164, 11, 28, 17, 9, 0, 0, [0, 0, 1, 1, 0, 0]>, <165, 12, 29, 17, 9, 0, 0, [0, 0, 1, 1, 0, 0]>, <166, 13, 30, 17, 9, 0, 0, [0, 0, 1, 1, 0, 0]>, <167, 14, 31, 17, 9, 0, 0, [0, 0, 1, 1, 0, 0]>, <168, 15, 32, 17, 9, 0, 0, [0, 0, 1, 1, 0, 0]>, <169, 16, 33, 17, 9, 0, 0, [0, 0, 1, 1, 0, 0]>, <170, 17, 34, 17, 9, 0, 0, [0, 0, 1, 1, 0, 0]>, <171, 18, 35, 17, 9, 0, 0, [0, 0, 1, 1, 0, 0]>, <172, 3, 17, 14, 10, 0, 1, [0, 0, 0, 0, 1, 1]>, <173, 4, 18, 14, 10, 0, 1, [0, 0, 0, 0, 1, 1]>, <174, 5, 19, 14, 10, 0, 1, [0, 0, 0, 0, 1, 1]>, <175, 6, 20, 14, 10, 0, 1, [0, 0, 0, 0, 1, 1]>, <176, 12, 26, 14, 10, 0, 1, [0, 0, 0, 0, 1, 1]>, <177, 13, 27, 14, 10, 0, 1, [0, 0, 0, 0, 1, 1]>, <178, 14, 28, 14, 10, 0, 1, [0, 0, 0, 0, 1, 1]>, <179, 15, 29, 14, 10, 0, 1, [0, 0, 0, 0, 1, 1]>, <180, 17, 31, 14, 10, 0, 1, [0, 0, 0, 0, 1, 1]>, <181, 18, 32, 14, 10, 0, 1, [0, 0, 0, 0, 1, 1]>, <182, 19, 33, 14, 10, 0, 1, [0, 0, 0, 0, 1, 1]>, <183, 20, 34, 14, 10, 0, 1, [0, 0, 0, 0, 1, 1]>, <184, 21, 35, 14, 10, 0, 1, [0, 0, 0, 0, 1, 1]>, <185, 1, 17, 16, 11, 0, 0, [0, 1, 1, 0, 0, 0]>, <186, 2, 18, 16, 11, 0, 0, [0, 1, 1, 0, 0, 0]>, <187, 3, 19, 16, 11, 0, 0, [0, 1, 1, 0, 0, 0]>, <188, 4, 20, 16, 11, 0, 0, [0, 1, 1, 0, 0, 0]>, <189, 5, 21, 16, 11, 0, 0, [0, 1, 1, 0, 0, 0]>, <190, 6, 22, 16, 11, 0, 0, [0, 1, 1, 0, 0, 0]>, <191, 10, 26, 16, 11, 0, 0, [0, 1, 1, 0, 0, 0]>, <192, 11, 27, 16, 11, 0, 0, [0, 1, 1, 0, 0, 0]>, <193, 12, 28, 16, 11, 0, 0, [0, 1, 1, 0, 0, 0]>, <194, 13, 29, 16, 11, 0, 0, [0, 1, 1, 0, 0, 0]>, <195, 14, 30, 16, 11, 0, 0, [0, 1, 1, 0, 0, 0]>, <196, 15, 31, 16, 11, 0, 0, [0, 1, 1, 0, 0, 0]>, <197, 16, 32, 16, 11, 0, 0, [0, 1, 1, 0, 0, 0]>, <198, 17, 33, 16, 11, 0, 0, [0, 1, 1, 0, 0, 0]>, <199, 18, 34, 16, 11, 0, 0, [0, 1, 1, 0, 0, 0]>, <200, 19, 35, 16, 11, 0, 0, [0, 1, 1, 0, 0, 0]>, <201, 3, 17, 14, 12, 0, 1, [1, 0, 0, 0, 0, 1]>, <202, 4, 18, 14, 12, 0, 1, [1, 0, 0, 0, 0, 1]>, <203, 5, 19, 14, 12, 0, 1, [1, 0, 0, 0, 0, 1]>, <204, 6, 20, 14, 12, 0, 1, [1, 0, 0, 0, 0, 1]>, <205, 12, 26, 14, 12, 0, 1, [1, 0, 0, 0, 0, 1]>, <206, 13, 27, 14, 12, 0, 1, [1, 0, 0, 0, 0, 1]>, <207, 14, 28, 14, 12, 0, 1, [1, 0, 0, 0, 0, 1]>, <208, 15, 29, 14, 12, 0, 1, [1, 0, 0, 0, 0, 1]>, <209, 17, 31, 14, 12, 0, 1, [1, 0, 0, 0, 0, 1]>, <210, 18, 32, 14, 12, 0, 1, [1, 0, 0, 0, 0, 1]>, <211, 19, 33, 14, 12, 0, 1, [1, 0, 0, 0, 0, 1]>, <212, 20, 34, 14, 12, 0, 1, [1, 0, 0, 0, 0, 1]>, <213, 21, 35, 14, 12, 0, 1, [1, 0, 0, 0, 0, 1]>, <214, 0, 17, 17, 13, 0, 1, [1, 1, 0, 0, 0, 0]>, <215, 1, 18, 17, 13, 0, 1, [1, 1, 0, 0, 0, 0]>, <216, 2, 19, 17, 13, 0, 1, [1, 1, 0, 0, 0, 0]>, <217, 3, 20, 17, 13, 0, 1, [1, 1, 0, 0, 0, 0]>, <218, 4, 21, 17, 13, 0, 1, [1, 1, 0, 0, 0, 0]>, <219, 5, 22, 17, 13, 0, 1, [1, 1, 0, 0, 0, 0]>, <220, 6, 23, 17, 13, 0, 1, [1, 1, 0, 0, 0, 0]>, <221, 9, 26, 17, 13, 0, 1, [1, 1, 0, 0, 0, 0]>, <222, 10, 27, 17, 13, 0, 1, [1, 1, 0, 0, 0, 0]>, <223, 11, 28, 17, 13, 0, 1, [1, 1, 0, 0, 0, 0]>, <224, 12, 29, 17, 13, 0, 1, [1, 1, 0, 0, 0, 0]>, <225, 13, 30, 17, 13, 0, 1, [1, 1, 0, 0, 0, 0]>, <226, 14, 31, 17, 13, 0, 1, [1, 1, 0, 0, 0, 0]>, <227, 15, 32, 17, 13, 0, 1, [1, 1, 0, 0, 0, 0]>, <228, 16, 33, 17, 13, 0, 1, [1, 1, 0, 0, 0, 0]>, <229, 17, 34, 17, 13, 0, 1, [1, 1, 0, 0, 0, 0]>, <230, 18, 35, 17, 13, 0, 1, [1, 1, 0, 0, 0, 0]>, <231, 3, 17, 14, 14, 0, 1, [0, 0, 0, 0, 1, 1]>, <232, 4, 18, 14, 14, 0, 1, [0, 0, 0, 0, 1, 1]>, <233, 5, 19, 14, 14, 0, 1, [0, 0, 0, 0, 1, 1]>, <234, 6, 20, 14, 14, 0, 1, [0, 0, 0, 0, 1, 1]>, <235, 12, 26, 14, 14, 0, 1, [0, 0, 0, 0, 1, 1]>, <236, 13, 27, 14, 14, 0, 1, [0, 0, 0, 0, 1, 1]>, <237, 14, 28, 14, 14, 0, 1, [0, 0, 0, 0, 1, 1]>, <238, 15, 29, 14, 14, 0, 1, [0, 0, 0, 0, 1, 1]>, <239, 17, 31, 14, 14, 0, 1, [0, 0, 0, 0, 1, 1]>, <240, 18, 32, 14, 14, 0, 1, [0, 0, 0, 0, 1, 1]>, <241, 19, 33, 14, 14, 0, 1, [0, 0, 0, 0, 1, 1]>, <242, 20, 34, 14, 14, 0, 1, [0, 0, 0, 0, 1, 1]>, <243, 21, 35, 14, 14, 0, 1, [0, 0, 0, 0, 1, 1]>};
